c ren 1 -> 1
c ren 2 -> 2
c ren 3 -> 3
c ren 4 -> 4
c ren 5 -> 5
c ren 6 -> 6
c ren 7 -> 7
c ren 8 -> 8
c ren 9 -> 9
c ren 10 -> 10
c ren 11 -> 11
c ren 12 -> 12
c ren 13 -> 13
c ren 14 -> 14
c ren 15 -> 15
c ren 16 -> 16
c ren 17 -> 17
c ren 18 -> 18
c ren 19 -> 19
c ren 20 -> 20
c ren 21 -> 21
c ren 22 -> 22
c ren 23 -> 23
c ren 24 -> 24
c ren 25 -> 25
c ren 26 -> 26
c ren 27 -> 27
c ren 28 -> 28
c ren 29 -> 29
c ren 30 -> 30
c ren 31 -> 31
c ren 32 -> 32
c ren 33 -> 33
c ren 35 -> 34
c ren 38 -> 35
c ren 41 -> 36
c ren 47 -> 37
c ren 49 -> 38
c ren 52 -> 39
c ren 53 -> 40
c ren 54 -> 41
c ren 55 -> 42
c ren 57 -> 43
c ren 58 -> 44
c ren 59 -> 45
c ren 60 -> 46
c ren 62 -> 47
c ren 63 -> 48
c ren 65 -> 49
c ren 66 -> 50
c ren 68 -> 51
c ren 69 -> 52
c ren 73 -> 53
c ren 75 -> 54
c ren 77 -> 55
c ren 79 -> 56
c ren 81 -> 57
c ren 83 -> 58
c ren 84 -> 59
c ren 85 -> 60
c ren 88 -> 61
c ren 92 -> 62
c ren 93 -> 63
c ren 96 -> 64
c ren 98 -> 65
c ren 99 -> 66
c ren 101 -> 67
c ren 103 -> 68
c ren 105 -> 69
c ren 107 -> 70
c ren 109 -> 71
c ren 111 -> 72
c ren 112 -> 73
c ren 113 -> 74
c ren 114 -> 75
c ren 115 -> 76
c ren 119 -> 77
c ren 120 -> 78
c ren 122 -> 79
c ren 123 -> 80
c ren 125 -> 81
c ren 126 -> 82
c ren 128 -> 83
c ren 129 -> 84
c ren 131 -> 85
c ren 135 -> 86
c ren 137 -> 87
c ren 139 -> 88
c ren 141 -> 89
c ren 142 -> 90
c ren 143 -> 91
c ren 144 -> 92
c ren 145 -> 93
c ren 146 -> 94
c ren 147 -> 95
c ren 153 -> 96
c ren 155 -> 97
c ren 157 -> 98
c ren 160 -> 99
c ren 161 -> 100
c ren 162 -> 101
c ren 163 -> 102
c ren 164 -> 103
c ren 165 -> 104
c ren 166 -> 105
c ren 168 -> 106
c ren 228 -> 107
c ren 231 -> 108
c ren 250 -> 109
c ren 254 -> 110
c ren 255 -> 111
c ren 293 -> 112
c ren 302 -> 113
c ren 304 -> 114
c ren 305 -> 115
c ren 307 -> 116
c ren 309 -> 117
p cnf 117 756
e 35 106 117 0
a 1 2 3 4 5 6 7 8 9 10 11 12 13 14 15 16 17 18 19 20 21 22 23 24 25 26 27 28 29 30 31 32 0
e 33 34 36 37 38 39 40 41 42 43 44 45 46 47 48 49 50 51 52 53 54 55 56 57 58 59 60 61 62 63 64 65 66 67 68 69 70 71 72 73 74 75 76 77 78 79 80 81 82 83 84 85 86 87 88 89 90 91 92 93 94 95 96 97 98 99 100 101 102 103 104 105 107 108 109 110 111 112 113 114 115 116 0
10 12 -25 -27 -42 0
12 -28 42 59 -98 -102 0
-1 -2 18 114 0
2 -17 -18 -75 0
2 -17 -18 -58 0
-10 -11 25 27 41 0
9 10 -26 -42 0
-9 10 -11 -12 -25 26 -27 -28 -45 0
-10 -12 25 27 28 41 0
11 -27 42 59 -98 -102 0
-29 48 0
-10 26 61 67 -108 -115 0
29 -60 0
9 10 12 -27 -42 0
9 -10 11 -12 25 -26 27 -28 -45 0
30 -105 0
9 -10 -11 -12 25 -26 -27 -28 -45 0
9 10 11 -12 25 26 27 -28 -45 0
10 -26 42 59 -98 -102 0
16 -47 61 67 -91 -95 -108 -115 0
-10 -12 25 27 28 111 0
-7 -8 36 70 77 99 -111 0
-9 -11 -12 26 28 41 0
-11 25 26 27 41 0
10 11 -25 -28 -42 0
-9 -11 -12 26 28 111 0
6 76 0
10 11 -25 -27 -42 0
42 -45 59 -98 -102 0
-1 -2 3 18 -19 115 0
9 10 11 -28 -42 0
-12 28 42 59 -98 -102 0
-2 17 18 114 0
9 10 -11 12 25 26 -27 28 -45 0
-11 27 42 59 -98 -102 0
-1 17 114 0
11 -25 -26 -28 -104 0
-7 23 -37 94 -97 0
9 11 -26 -28 -42 0
-9 25 41 0
-37 -97 -99 0
-2 3 -4 17 -19 -67 115 117 0
9 -10 -11 12 25 -26 -27 28 -45 0
-11 -12 25 26 28 41 0
3 -4 17 18 -19 -67 115 117 0
9 11 -26 -27 -42 0
-10 25 26 41 0
9 12 -26 -27 -42 0
2 3 -19 -62 -114 0
-9 -11 26 27 41 0
10 -25 -27 -28 -42 0
-25 -26 -27 -28 -42 0
9 10 11 -27 -42 0
-3 4 -19 -20 -36 69 0
10 -25 -26 -42 0
9 -25 59 -98 -102 0
-9 -12 26 27 28 41 0
41 -42 0
-1 3 17 -18 -19 -62 0
11 -25 -26 -28 -42 0
-10 26 42 59 -98 -102 0
-9 -10 11 -12 -25 -26 27 -28 -89 0
3 -7 8 16 19 -23 24 32 42 45 50 52 -55 -56 78 80 82 84 -86 -87 -88 -98 0
-9 10 11 -12 -25 26 27 -28 -45 0
9 10 -11 -12 25 26 -27 -28 -45 0
15 -31 -64 -65 -68 -75 93 110 0
-9 -10 11 -12 -25 -26 27 -28 -45 0
9 -25 67 -108 -115 0
9 10 11 12 25 26 27 28 -45 0
-10 -11 -12 25 28 41 0
11 12 -25 -26 -42 0
-9 -10 -11 -12 28 111 0
23 24 -44 54 57 74 85 0
-70 -94 -103 0
2 3 4 17 18 19 20 -78 0
-1 3 17 19 112 0
-1 3 17 -19 115 0
5 109 0
-2 3 4 17 -18 19 20 -78 0
-54 -109 -110 0
-8 23 -41 50 52 78 101 0
7 -23 59 -98 -102 0
-21 103 0
23 24 36 70 77 99 -111 0
-21 56 0
-8 23 -44 54 57 74 85 0
-7 23 59 -98 -102 0
-50 59 -98 -102 0
6 -22 59 -98 -102 0
-22 76 0
1 -3 -17 19 -74 0
-52 -98 -102 0
6 -22 -56 -59 0
-3 -4 19 20 58 -74 0
-8 23 24 54 57 110 0
-52 -56 -59 0
5 -21 -59 0
4 -18 -19 -46 -69 0
-10 -12 25 27 28 44 0
-7 -8 -44 54 57 74 85 0
9 10 11 -28 -93 0
2 3 4 -62 108 0
3 -7 8 -16 19 -23 24 -32 42 45 50 52 -55 -56 78 80 82 84 -86 -87 -88 -98 0
-8 24 59 -98 -102 0
9 10 11 -27 -104 0
23 24 -41 50 52 78 101 0
21 -81 0
2 4 -19 -46 97 0
-2 -3 -4 17 20 36 0
52 55 59 0
-6 22 52 59 0
7 -24 -67 -73 -76 0
56 59 0
-5 21 59 0
-18 -19 -35 -46 -69 0
2 4 -19 -62 108 0
-1 -2 -3 18 -19 37 0
-5 21 110 0
-9 10 -11 -12 -25 26 -27 -28 -51 0
7 8 -55 -56 -59 0
3 -7 8 16 -19 -23 24 32 34 39 40 -47 61 -73 -76 81 90 -91 -95 96 107 -108 0
9 -10 -11 12 25 -26 -27 28 -107 0
67 76 81 0
-22 55 0
-7 -8 24 50 52 59 0
-8 23 24 50 52 59 0
7 -24 -55 -56 -59 0
-6 22 67 81 0
8 -23 -55 -56 -59 0
-51 -68 -75 93 110 0
-7 -8 -41 50 52 78 101 0
-57 -68 -75 110 0
61 67 -107 -108 -115 0
-9 25 113 0
2 3 4 -20 -71 -102 0
109 110 0
-14 -105 0
-16 32 60 63 79 105 0
-21 109 0
-7 -8 24 54 57 110 0
3 7 -8 16 -19 23 -24 32 34 39 40 -47 61 -73 -76 81 90 -91 -95 96 107 -108 0
21 -52 0
-50 -56 -59 0
-7 24 -41 50 52 78 101 0
-7 24 45 50 52 78 -92 101 0
8 -24 59 -98 -102 0
-22 83 0
5 -21 -98 -102 0
-7 23 50 52 59 0
9 -10 -11 12 25 -26 -27 28 -51 0
7 8 -83 -109 -110 0
23 24 45 50 52 78 -92 101 0
10 11 -25 -27 -61 0
10 11 -25 -28 -61 0
2 3 -4 17 18 19 -20 -78 0
-6 22 59 -98 -102 0
-11 -12 25 26 28 44 0
2 -18 -71 -102 0
23 24 51 54 57 -63 74 85 0
2 3 -20 -71 -112 0
60 63 64 0
-11 25 26 27 113 0
7 -23 -68 -75 110 0
-1 -2 -4 19 20 101 0
16 42 59 -86 -87 -88 -98 -102 0
-1 -4 18 19 20 101 0
-1 -2 3 -4 19 -59 102 0
-21 73 0
-3 19 -74 75 0
2 -3 -18 19 58 -74 0
-68 -75 -85 0
3 -18 -20 -71 98 0
-9 -10 -11 12 -25 -26 -27 28 -51 0
-10 26 -68 -75 93 110 0
3 -4 17 18 19 -59 102 0
-9 -11 -12 26 28 113 0
10 -26 61 67 -108 -115 0
-9 -10 -11 -12 28 44 0
-9 -10 -11 27 44 0
10 -25 -26 -93 0
-17 46 0
1 62 0
3 -4 17 18 19 20 102 0
11 -27 -68 -75 93 110 0
-8 23 24 70 77 94 0
-3 -4 17 18 -19 20 37 0
3 -18 -19 -62 -114 0
-7 23 54 57 110 0
10 -25 -27 -28 -93 0
-29 65 0
-1 3 -4 18 -19 20 115 117 0
9 10 -11 -12 25 26 -27 -28 -107 0
-1 3 18 19 20 -59 102 106 0
4 -18 -19 -46 97 0
-30 49 0
-9 -10 -12 27 28 111 0
71 101 0
-1 17 101 0
-9 -10 11 12 -25 -26 27 28 -107 0
9 10 -11 -12 25 26 -27 -28 -89 0
3 17 18 19 20 -59 102 106 0
-9 -11 26 27 44 0
-3 17 18 19 75 0
-1 -2 3 -4 19 20 102 106 0
-25 -26 -27 -28 -93 0
2 3 -20 -71 98 0
-7 24 -44 54 57 74 85 0
11 -25 -26 -28 -61 0
-1 -2 3 -4 -18 19 -20 -78 0
-2 17 18 101 0
2 3 4 -71 -112 0
-1 -2 3 19 20 -59 102 106 0
6 -22 67 -108 -115 0
-9 -10 11 12 -25 -26 27 28 -51 0
-1 17 -78 0
-10 -11 -12 25 28 113 0
9 10 11 12 25 26 27 28 -107 0
-57 -109 -110 0
2 -18 -71 -112 0
2 -18 -71 98 0
3 -18 -20 -71 -112 0
-9 -10 11 -12 -25 -26 27 -28 -51 0
3 19 -101 102 0
-31 72 0
-1 -2 3 18 19 102 0
-9 10 11 -12 -25 26 27 -28 -107 0
-59 78 101 0
-1 3 17 19 102 0
42 59 -82 -87 -88 -98 -102 0
42 59 -80 -87 -88 -98 -102 0
-13 29 53 0
-9 10 11 12 -25 26 27 28 -51 0
12 -25 -26 -27 -93 0
15 86 0
9 10 11 12 25 26 27 28 -51 0
-9 10 -11 12 -25 26 -27 28 -51 0
13 -29 42 59 -98 -102 0
42 59 -84 -88 -98 -102 0
-3 -19 -35 -36 69 0
-9 -10 -11 -12 -25 -26 -27 -28 -51 0
14 87 0
-1 17 -85 0
3 7 8 16 19 23 24 32 42 45 50 52 -55 -56 78 80 82 84 -86 -87 -88 -98 0
3 4 -18 -20 -71 -102 0
-14 30 84 92 0
-2 3 18 19 -101 112 0
-3 -7 8 -16 19 -23 24 -32 51 54 57 60 -64 -65 -68 -72 79 -83 85 93 105 -109 0
3 7 8 -16 19 23 24 -32 42 45 50 52 -55 -56 78 80 82 84 -86 -87 -88 -98 0
-5 -54 0
13 88 0
3 7 -8 -16 19 23 -24 -32 42 45 50 52 -55 -56 78 80 82 84 -86 -87 -88 -98 0
9 10 11 -12 25 26 27 -28 -107 0
12 -25 -26 -27 -61 0
-9 10 11 12 -25 26 27 28 -107 0
14 -30 -65 -68 -75 93 110 0
9 12 -26 -27 -61 0
-1 2 -3 -4 18 -19 -20 -99 0
9 -26 -27 -28 -61 0
82 84 86 92 0
-15 31 82 84 92 0
8 -24 -37 94 -97 0
44 -93 0
2 3 -18 19 -101 112 0
-13 -66 0
1 -17 97 0
-13 29 92 0
88 92 0
-3 -7 -8 16 19 -23 -24 32 51 54 57 60 -64 -65 -68 -72 79 -83 85 93 105 -109 0
-6 -90 0
-8 23 -24 39 61 81 90 -100 107 114 0
-65 -68 -75 93 -105 110 0
2 -3 -18 -19 -36 69 0
-32 42 59 -86 -87 -88 -98 -102 0
9 11 -26 -27 -93 0
14 -30 -37 -48 94 -97 104 0
9 10 11 -27 -61 0
9 -10 -11 -12 25 -26 -27 -28 -107 0
14 -30 42 59 -88 -98 -102 0
40 47 96 100 0
-2 3 -4 17 -18 19 -20 -78 0
-3 7 -8 -16 19 23 -24 -32 51 54 57 60 -64 -65 -68 -72 79 -83 85 93 105 -109 0
-7 24 51 54 57 -63 74 85 0
-9 -11 26 27 113 0
-1 17 36 0
-11 27 61 67 -108 -115 0
21 -54 0
-3 17 18 -19 20 35 37 -94 0
9 -10 11 12 25 -26 27 28 -51 0
10 11 12 -25 -93 0
30 -116 0
-60 -68 -75 93 110 0
-12 25 26 27 28 44 0
22 -57 0
-2 -3 17 19 75 0
-13 29 63 0
-15 31 40 96 100 0
-23 -24 -67 -73 -76 0
-3 -19 37 -69 0
9 -25 -61 0
8 -24 -68 -75 110 0
-14 30 60 63 0
-15 -33 0
31 -33 0
9 11 -26 -28 -93 0
3 7 8 -16 -19 23 24 -32 34 39 40 -47 61 -73 -76 81 90 -91 -95 96 107 -108 0
-2 -3 18 -19 -36 69 0
-12 25 26 27 28 113 0
22 -50 0
9 -10 11 -12 25 -26 27 -28 -107 0
10 11 12 -25 -61 0
2 4 -19 -20 -37 -46 0
3 4 -18 -71 -112 0
98 101 0
-15 -79 0
9 -10 11 12 25 -26 27 28 -107 0
9 10 11 12 -61 0
-1 2 3 -4 18 19 -20 -78 0
-23 -24 -55 -56 -59 0
15 -31 -37 -48 -49 94 -97 104 0
3 7 8 16 -19 23 24 32 34 39 40 -47 61 -73 -76 81 90 -91 -95 96 107 -108 0
-6 22 -68 -75 110 0
-17 71 0
-1 -3 17 19 75 0
9 10 12 -27 -61 0
9 10 11 -28 -61 0
-78 -98 -102 0
11 12 -25 -26 -93 0
101 -102 0
-4 17 18 19 20 101 0
-9 -12 26 27 28 44 0
9 11 -26 -28 -61 0
29 -66 0
9 10 -27 -28 -93 0
10 -25 -27 -28 -61 0
-9 -10 -11 27 41 0
11 -27 61 67 -108 -115 0
-6 22 54 110 0
3 -4 19 20 -101 112 0
-7 24 36 70 77 99 -111 0
9 10 -27 -28 -42 0
9 -25 -42 0
11 -27 -37 94 -97 104 0
-7 23 70 77 94 0
9 10 11 12 -42 0
-1 3 18 -19 20 -67 115 117 0
62 114 0
-9 -10 -11 27 111 0
10 -25 -27 -28 -104 0
9 -10 11 12 25 -26 27 28 -45 0
7 -23 -37 94 -97 0
10 11 12 -25 -42 0
23 24 36 -53 70 77 89 99 0
-12 25 26 27 28 41 0
-3 7 8 -16 19 23 24 -32 51 54 57 60 -64 -65 -68 -72 79 -83 85 93 105 -109 0
-1 -2 -3 -4 20 36 0
7 -23 -67 -73 -76 0
-1 -3 18 -19 20 35 37 -94 0
-10 -12 25 27 28 113 0
5 73 0
4 -18 -19 -20 -37 -46 0
-25 -26 -27 -28 -104 0
-7 -8 39 61 81 90 -100 107 114 0
4 -18 -19 -62 108 0
10 -25 -26 -104 0
31 -79 0
-11 27 -37 94 -97 104 0
49 53 66 0
9 10 11 -28 -104 0
10 11 -25 -28 -104 0
-15 31 53 66 116 0
3 -18 -20 -62 108 0
11 -25 -26 -27 -42 0
3 17 18 -19 20 -67 115 117 0
-9 -10 -11 12 -25 -26 -27 28 -89 0
-1 -2 3 -4 -19 20 115 117 0
-9 -10 26 41 0
-1 2 3 4 17 -19 -62 0
-9 -11 26 27 111 0
-10 26 -37 94 -97 104 0
-9 -10 11 12 -25 -26 27 28 -89 0
-9 10 11 12 -25 26 27 28 -45 0
-1 -3 17 -19 69 0
3 -4 17 18 -19 20 115 117 0
2 3 -20 -62 108 0
-1 17 -39 0
12 -25 -26 -27 -42 0
2 -19 -20 -62 108 0
-9 10 -11 12 -25 26 -27 28 -45 0
-31 38 0
-1 -2 3 -19 20 -67 115 117 0
-1 -2 -3 4 -18 -19 20 -99 0
9 11 12 -26 -42 0
2 -18 -58 -85 0
-1 -2 -3 -4 -19 20 35 37 0
9 -26 -27 -28 -42 0
-1 -3 17 -19 37 0
-9 -10 -11 -12 -25 -26 -27 -28 -45 0
-34 61 67 -91 -95 -108 -115 0
11 12 -25 -26 -61 0
2 -18 -62 108 0
-40 61 67 -91 -95 -108 -115 0
-9 10 11 12 -25 26 27 28 -89 0
9 10 11 12 25 26 27 28 -89 0
7 -24 -83 -109 -110 0
1 2 -18 -58 0
-14 -116 0
-16 32 33 53 66 116 0
3 7 -8 -16 -19 23 -24 -32 34 39 40 -47 61 -73 -76 81 90 -91 -95 96 107 -108 0
-7 -8 24 70 77 94 0
-7 -8 -23 39 81 90 -113 114 0
-8 23 42 45 50 52 78 -92 101 0
-9 10 -11 -12 -25 26 -27 -28 -89 0
7 8 -67 -73 -76 0
-6 -50 0
-7 -8 24 67 81 90 0
-8 23 24 67 81 90 0
-2 -3 18 19 58 -74 0
3 -7 -8 16 -19 -23 -24 32 34 39 40 -47 61 -73 -76 81 90 -91 -95 96 107 -108 0
-61 113 0
5 -21 -67 0
-5 -52 0
67 73 0
-5 21 67 0
-2 -3 -4 17 -19 20 35 37 0
3 -7 8 -16 -19 -23 24 -32 34 39 40 -47 61 -73 -76 81 90 -91 -95 96 107 -108 0
1 -17 68 0
10 11 -25 -27 -104 0
48 53 0
8 -24 67 -108 -115 0
-22 43 0
-13 -60 0
3 -19 -114 115 0
-2 -3 17 18 -19 37 0
5 103 0
9 12 -26 -27 -104 0
7 -23 -55 -56 -59 0
6 55 0
36 -37 0
-9 -11 -12 26 28 44 0
5 56 0
-1 2 3 17 -19 -62 -117 0
-1 3 -4 18 -19 -67 115 117 0
-8 24 67 -108 -115 0
8 -23 -67 -73 -76 0
23 24 39 81 90 -113 114 0
-37 -70 94 -97 0
-67 -73 -76 -90 0
-37 -89 94 -97 104 0
2 -3 4 17 18 -19 20 -99 0
-7 24 39 81 90 -100 107 114 0
-7 -8 42 45 50 52 78 -92 101 0
-5 21 94 0
94 103 0
5 -21 -108 -115 0
1 2 -18 -75 0
15 -31 61 67 -91 -95 -108 -115 0
2 -19 -20 -46 97 0
9 -10 -11 12 25 -26 -27 28 -89 0
7 8 -43 -94 -103 0
-7 24 39 81 90 -113 114 0
-7 23 67 81 90 0
-2 3 -4 17 19 -59 102 106 0
8 23 24 39 81 90 -100 107 114 0
10 -25 -26 -61 0
-15 31 60 63 105 0
10 11 -25 -28 -93 0
-11 27 -68 -75 93 110 0
3 -7 -8 -16 -19 -23 -24 -32 34 39 40 -47 61 -73 -76 81 90 -91 -95 96 107 -108 0
-7 23 -68 -75 110 0
11 -25 -26 -28 -93 0
15 -31 42 59 -87 -88 -98 -102 0
63 65 0
-6 22 67 -108 -115 0
-11 -12 25 26 28 111 0
-12 28 61 67 -108 -115 0
3 19 59 -101 112 0
10 11 -25 -27 -93 0
7 -8 23 39 81 90 -113 114 0
2 3 4 -71 98 0
-77 -94 -103 0
-3 19 58 -74 110 0
7 -23 67 -108 -115 0
-1 2 3 4 18 19 20 -78 0
-9 10 -11 -12 -25 26 -27 -28 -107 0
9 10 -26 -61 0
9 10 11 -27 -93 0
-1 -3 17 19 58 0
-3 4 19 -20 58 -74 0
-9 -12 26 27 28 113 0
9 12 -26 -27 -93 0
-2 -3 -4 17 -18 -19 -20 -99 0
-1 -3 18 19 75 0
-9 10 11 -12 -25 26 27 -28 -89 0
-2 -3 4 17 -18 -19 20 -99 0
-1 3 -4 18 19 -59 102 106 0
2 3 -71 -106 -112 0
-2 3 17 18 -19 115 0
-39 62 0
74 -75 0
3 -18 -71 -106 -112 0
-1 2 3 17 -19 -20 -62 0
1 71 0
-9 -10 -12 27 28 113 0
2 -17 -18 68 0
-9 10 11 -12 -25 26 27 -28 -51 0
-8 23 36 70 77 99 -111 0
-10 -11 25 27 113 0
71 -78 0
-2 3 17 18 19 102 0
-1 -2 3 4 -18 19 20 -78 0
-1 3 -4 18 19 20 102 106 0
9 10 -11 -12 25 26 -27 -28 -51 0
-9 -10 11 12 -25 -26 27 28 -45 0
-25 -26 -27 -28 -61 0
-9 -10 -12 27 28 41 0
3 19 102 -112 0
9 11 -26 -27 -61 0
-7 23 67 -108 -115 0
67 -90 -108 -115 0
-81 -108 -115 0
6 -22 -67 -73 0
-9 -10 -12 27 28 44 0
-30 64 0
-2 -3 -4 17 -19 35 37 -94 0
-2 3 17 19 20 -59 102 106 0
1 -17 98 0
3 4 -18 -71 98 0
5 -21 -68 -75 110 0
9 10 -11 12 25 26 -27 28 -51 0
9 -25 -68 -75 110 0
46 -99 0
3 -7 -8 16 19 -23 -24 32 42 45 50 52 -55 -56 78 80 82 84 -86 -87 -88 -98 0
-11 25 26 27 44 0
9 10 -11 12 25 26 -27 28 -107 0
-23 -24 -83 -109 -110 0
9 -10 -11 -12 25 -26 -27 -28 -51 0
13 65 0
-31 86 0
-1 -3 -4 18 20 36 0
22 -70 0
-15 -80 0
-2 -3 17 -19 20 35 37 -94 0
10 11 12 -25 -104 0
-1 -3 -4 18 -19 20 35 37 0
9 -26 -27 -28 -93 0
-32 -47 61 67 -91 -95 -108 -115 0
2 -19 -20 -46 -69 0
-14 -82 0
14 -30 61 67 -95 -108 -115 0
-104 111 0
9 11 -26 -27 -104 0
-16 32 80 82 84 92 0
-6 -57 0
-3 -4 17 18 20 36 0
14 91 0
-13 -84 0
-14 30 96 100 0
-9 10 -11 12 -25 26 -27 28 -89 0
-1 17 -99 0
1 3 -17 19 -101 0
6 83 0
-9 -10 26 113 0
11 -25 -26 -27 -61 0
-18 -19 -20 -62 108 0
11 -25 -26 -27 -93 0
9 11 12 -26 -61 0
-9 10 -11 12 -25 26 -27 28 -107 0
-37 -66 94 -97 104 0
-12 25 26 27 28 111 0
9 11 12 -26 -93 0
7 -24 -43 -94 -103 0
-9 -10 -11 -12 -25 -26 -27 -28 -107 0
95 100 0
-2 17 18 36 0
-8 23 -24 51 54 57 -63 74 85 93 0
-1 -2 -3 -4 -19 35 37 -94 0
13 -29 61 67 -108 -115 0
61 67 -95 -96 -108 -115 0
7 -23 -83 -109 -110 0
-5 -81 0
-5 -77 0
-13 29 100 0
29 -84 0
-7 24 36 -53 70 77 89 99 0
13 95 0
-3 -19 -36 69 94 0
30 -82 0
-14 30 53 66 0
21 -77 0
-1 -2 18 36 0
22 -90 0
31 -80 0
-9 -10 -11 -12 -25 -26 -27 -28 -89 0
-37 -48 94 -97 104 -116 0
-3 -19 -36 37 0
-54 -68 -75 110 0
-6 22 -37 94 -97 0
-17 62 0
5 -21 -110 0
-1 -3 -4 18 -19 35 37 -94 0
-9 -10 26 44 0
-39 -108 -115 0
9 11 -26 -28 -104 0
9 -10 11 12 25 -26 27 28 -89 0
-3 -7 8 16 19 -23 24 32 51 54 57 60 -64 -65 -68 -72 79 -83 85 93 105 -109 0
108 114 0
11 12 -25 -26 -104 0
14 64 0
9 10 -27 -28 -104 0
-9 -12 26 27 28 111 0
-3 -4 -19 20 -36 69 0
9 -25 -93 0
9 10 -27 -28 -61 0
-6 22 77 94 0
12 -25 -26 -27 -104 0
15 47 0
-7 -8 51 54 57 -63 74 85 93 0
-18 -19 -20 -46 -69 0
-10 -11 -12 25 28 44 0
15 72 0
6 -22 -109 -110 0
10 -26 -68 -75 93 110 0
-10 25 26 113 0
-9 -10 -11 27 113 0
84 87 92 0
3 7 -8 16 19 23 -24 32 42 45 50 52 -55 -56 78 80 82 84 -86 -87 -88 -98 0
68 74 0
3 19 -101 -106 112 0
8 -23 -83 -109 -110 0
9 10 12 -27 -93 0
-29 88 0
-12 28 -68 -75 93 110 0
-30 87 0
13 -29 -68 -75 93 110 0
3 4 19 -20 -101 112 0
-9 -10 -11 -12 28 41 0
-2 3 -4 17 19 20 102 106 0
2 -18 -37 -46 0
114 -115 0
2 -18 -46 97 0
-2 -4 17 19 20 101 0
9 10 11 12 -93 0
-1 -2 -3 19 75 0
9 -10 11 -12 25 -26 27 -28 -51 0
3 -7 -8 -16 19 -23 -24 -32 42 45 50 52 -55 -56 78 80 82 84 -86 -87 -88 -98 0
-9 25 44 0
-64 -65 -68 -72 -75 -79 93 110 0
9 10 11 -12 25 26 27 -28 -51 0
16 -64 -65 -68 -72 -75 93 110 0
-9 -10 11 -12 -25 -26 27 -28 -107 0
-10 25 26 44 0
-8 24 -68 -75 110 0
54 83 110 0
60 63 72 105 0
1 2 -18 68 0
1 46 0
9 10 -26 -93 0
-10 -11 25 27 44 0
-9 -10 -11 12 -25 -26 -27 28 -45 0
74 85 -110 0
-3 19 -58 75 0
1 -17 -58 0
-11 -12 25 26 28 113 0
12 -28 61 67 -108 -115 0
-32 -64 -65 -68 -72 -75 93 110 0
6 -22 -68 -75 110 0
12 -28 -68 -75 93 110 0
10 12 -25 -27 -61 0
10 12 -25 -27 -93 0
-1 -2 -3 -19 20 35 37 -94 0
2 4 -19 -46 -69 0
-2 3 17 -19 20 -67 115 117 0
1 -17 108 0
3 4 -18 -62 108 0
5 -21 -37 -97 0
9 10 -11 12 25 26 -27 28 -89 0
9 -25 -37 94 -97 0
1 -3 -17 -19 -36 0
2 -18 -46 -69 0
-3 -7 -8 -16 19 -23 -24 -32 51 54 57 60 -64 -65 -68 -72 79 -83 85 93 105 -109 0
-11 25 26 27 111 0
2 -3 -4 17 18 -19 -20 -99 0
-23 -24 -43 -94 -103 0
9 -10 -11 -12 25 -26 -27 -28 -89 0
13 48 0
-31 47 0
-15 -34 0
-18 -19 -20 -46 97 0
9 -26 -27 -28 -104 0
-14 -40 0
-16 32 34 40 96 100 0
-6 -70 0
-13 -96 0
6 43 0
11 -25 -26 -27 -104 0
9 11 12 -26 -104 0
-8 23 36 -53 70 77 89 99 104 0
7 -23 -43 -94 -103 0
29 -96 0
30 -40 0
31 -34 0
-37 -77 94 -97 0
5 -21 -94 0
-9 -10 26 111 0
14 49 0
9 -25 -104 0
-7 -8 36 -53 70 77 89 99 104 0
-10 -11 -12 25 28 111 0
15 38 0
6 -22 -94 -103 0
10 -26 -37 94 -97 104 0
2 -19 -35 -46 -69 0
91 96 100 0
-3 7 8 16 19 23 24 32 51 54 57 60 -64 -65 -68 -72 79 -83 85 93 105 -109 0
36 97 0
-3 -4 17 18 -19 35 37 -94 0
8 -23 -43 -94 -103 0
9 10 12 -27 -104 0
-29 95 0
-1 -2 -3 -4 -18 -19 -20 -99 0
-12 28 -37 94 -97 104 0
-30 91 0
13 -29 -37 94 -97 104 0
36 46 0
-9 -10 -11 -12 28 113 0
-2 3 -4 17 -19 20 115 117 0
9 10 11 12 -104 0
9 -10 11 -12 25 -26 27 -28 -89 0
-3 7 -8 16 19 23 -24 32 51 54 57 60 -64 -65 -68 -72 79 -83 85 93 105 -109 0
-9 25 111 0
-1 2 -3 4 18 -19 20 -99 0
-33 -37 -38 -48 -49 94 -97 104 0
9 10 11 -12 25 26 27 -28 -89 0
16 -37 -38 -48 -49 94 -97 104 0
-10 25 26 111 0
-8 24 -37 94 -97 0
43 77 94 0
38 53 66 116 0
-1 -2 3 -4 -19 -67 115 117 0
9 10 -26 -104 0
-10 -11 25 27 111 0
-9 -10 -11 12 -25 -26 -27 28 -107 0
36 -94 99 0
-32 -37 -38 -48 -49 94 -97 104 0
6 -22 -37 94 -97 0
12 -28 -37 94 -97 104 0
1 3 -17 -19 -114 0
10 12 -25 -27 -104 0
-3 7 -8 -16 -19 23 -24 -32 33 -38 -43 -48 -49 66 70 77 89 -97 99 -103 104 116 0
-3 7 8 -16 -19 23 24 -32 33 -38 -43 -48 -49 66 70 77 89 -97 99 -103 104 116 0
-3 -7 -8 -16 -19 -23 -24 -32 33 -38 -43 -48 -49 66 70 77 89 -97 99 -103 104 116 0
-3 7 8 16 -19 23 24 32 33 -38 -43 -48 -49 66 70 77 89 -97 99 -103 104 116 0
-3 7 -8 16 -19 23 -24 32 33 -38 -43 -48 -49 66 70 77 89 -97 99 -103 104 116 0
-3 -7 -8 16 -19 -23 -24 32 33 -38 -43 -48 -49 66 70 77 89 -97 99 -103 104 116 0
-3 -7 8 16 -19 -23 24 32 33 -38 -43 -48 -49 66 70 77 89 -97 99 -103 104 116 0
-3 -7 8 -16 -19 -23 24 -32 33 -38 -43 -48 -49 66 70 77 89 -97 99 -103 104 116 0
